
        $ From http://www.csplib.org/Problems/prob009/data/helmut.pdf
        $ Problem number 103
        $ Sequence length : 25
        language ESSENCE' 1.0
        letting sizemaster be 361
        letting sizes be sequence(2,6,7,8,9,14,20,22,26,27,32,34,36,47,49,56,66,67,74,82,89,98,107,156,205)
        